10049.1 568036
16855.8 516362
571644 11638.8
78883.2 455144
558700 26135.5
514581 51446.6
283192 255944
14508.5 556159
210182 361399
442458 97016.7
133603 421232
433243 132133
380930 179588
127235 431243
185378 373617
78859.2 462534
319356 240349
156863 404404
176982 395076
546054 35586.7
67482 476672
329024 229150
71552.8 472750
168414 399540
281960 262607
124296 452559
66624.3 501427
147680 406715
77885 467261
451933 93577.4
42256.4 510471
458463 87141.7
335019 225172
400313 160707
368050 193442
183005 377232
347481 198720
449739 96596.7
309422 242094
271533 283286
93288.5 453464
132136 426795
203033 361506
407293 154630
398190 168397
462446 85985.5
481681 80543.5
457014 90630.4
256406 324832
498192 78759.2
231940 326262
325289 233649
46921 509487
415236 139049
211723 339666
266637 290250
64120 508674
374376 188920
456261 93568.2
429825 137495
